Route #1: 1 12 34 45 16 57 20 1
Route #2: 1 27 8 26 21 14 17 13 11 1
Route #3: 1 22 33 56 59 41 15 51 52 53 1
Route #4: 1 61 62 4 42 43 32 47 2 48 1
Route #5: 1 55 30 31 3 35 49 1
Route #6: 1 6 46 28 60 25 9 50 1
Route #7: 1 7 38 36 18 23 29 54 1
Route #8: 1 40 24 63 58 19 5 1
Route #9: 1 37 10 39 44 1
cost: 1808
